##TITLE=Synthetic IR spectrum (absorbance)
##JCAMP-DX=4.24
##DATA TYPE=INFRARED SPECTRUM
##ORIGIN=synthetic data
##SAMPLING PROCEDURE=simulated
##RESOLUTION=2
##XUNITS=1/CM
##YUNITS=ABSORBANCE
##XFACTOR=1
##YFACTOR=9.27e-07
##FIRSTX=4000
##LASTX=400
##NPOINTS=1800
##FIRSTY=0.022057965
##MAXY=0.927241947
##MINY=0.015913809
##XYDATA=(X++(Y..Y))
4000 B3795J329j063m567r00L156J720p54K813k280k33k953q06N599l091J651m714K034j838
3964 A8898J118L628n137K049J511j789R04P2J387j827J524m59Q00m24L097n002M025l449j192
3926 B9734M686l555J18k153j525N902l876M200K315m229k176L288P99k201O09K850j43j192
3890 B3451l393J760J424j750q52l27K95p7M84L453m191L649j003n91k077Q09N252m034R57K80
3900 B3519Q58k779p93J199m22K281j284J20j89K351l806J54K958k123J025k333J641R01l775
3812 A9503J385K434L962l830j099j671K696o213N320n74l75O162j0307N326K37R01m420K495
3776 B1932k172L002P51j3p23Q89M5N59p49l827K166K584k624L30K061k45K129p16j931J303
3736 B4751o291M577J538m691M603J394J852j194L373n84o629L240L62P56j204K793N41m635
3700 B4552N601l152L972p52j179M906k020j488Q45N066j745n84j143J208m18l117N716m83
3664 C5785l256K101J446J854L666l030l542O300j030k638l77L439L952j584L826r74J959K106
3628 E0003P51k470P513p311N010o14N991m140J887J103Q50L142L068r98m0M611K112L248j594
3590 G2122L073M135k281L795J337l83M855M714M506n825P306K620K494j245L984M14M986L881
3554 A14488n69L610M021K385k39P167R17K161K673M383L720j906L956J287P854L091J671J682
3518 A62352Q523L995L358J41L667L500K946J208M935O688J881K648M177Q032L166K920J768
3484 B25905P88O821K687N843M688J39Q139J103L890K417M613M403L157L524L594Q989j117
3450 B89583N774K211k821J6654l146K357P542L840j001K823L224N960K838M527J194K213M375
3416 C48147J459N541K293L048K452P22k86Q901J976j656N750N15J541K090P8L275K067J904
3380 C89817l07L564p94J358K350j80l44J874L11K370J653J75k443Q37J407m120N189N30j505
3342 D01742o664M714n246N219p569O54K755n037m151K232J828n078j476R94k226P57k858m687
3306 C75903l002J587o154l339Q62m905m710J952k184p420j133l233k383l728n468J07m074
3272 C28678k316k229l090m301j0112r0j141k017p644l130J747j2970J065m490l191l668j615
3238 B69486l122Q06o594p814l132k073k96r978k518n042p94r279m75o909k32k538o261l271
3202 A99964o41o275k101n265m991k343K024q551k617q39n073k879O02o132o867J47n802k461
3166 A39900J21n080l642l408j235l626J1m296l361M464q469m703l520k117k825N02k079q19
3130 I5818n599r06k265K827n193j249l90l719k386k523j377j082k022j540L106q464l002L873
3094 F3907Q02m869J107N27n277k13l368p05n64J415O25k698m295p32J0l6M18n290J93N379
3054 D6336l560q01m581M589j658m923p4L486m726L648k916K170J47J688q117M05K769L799
3018 C7681k525l893N201j647L660m314N811K675l005N111L931L454K474R764K555J0028R986
2984 H6947J0186J2432Q248J4100K2168J8703K2445J8279K3512K1940L0189K9414K4028L0374
2956 C72965L0256K8497K7396K7140J6037K6978K6353J4494K1760R472P244J1090j158k269
2928 F16255j430j0709j3977j4525j8527j2396k1761k4956k4342k0236k3664j8930j9749j8509
2900 C72544j5437r899r912q834K366M841J12R138R055J3777J2734K0647J1011J3694J4077
2870 D39914J1154J2147J544K643K191o192r260j4695j1468j9773j7591k8002k1654k6918
2842 C14040k7730k2079k5377k8607k3297k6001j3632k0598j3512j7871j0452j1032r089r773
2814 E4990o881o283j413n658K03p342N400l041j930k563o04L78K139j162K99J004o71L82j933
2776 B5314k139N243j95o521L206N506k237m91p222M165q54J430L4K439l370O78j549j196L991
2738 B6232J567k430L122l961K059n527N164L009n311K599k04j523J174r23j131J509n92Q49
2702 B5682n038L969L218q78J182k751K382J307m535P97O650p415l069P475l026l557M78L555
2666 B6426l836J299j413L354l02l798P204n453J239N462m966p33p6L030l034l078J492J444
2630 B4261J050l129L786j368j230J703M722m887M48K196k293J459q3l739M005k581N68P40
2594 B5628k434M159J90L106n997L68M508p455K405M569n025O976o199j315K442m7j153J04
2558 B4830J304j252j142K151k61l231M161r18L213l999j258N60M400j444j330k276J267J255
2522 B6030J206k188L783l389L194n725M478k117l643N919k798L618m852K383R23m221K805
2488 B5406J921l007L40L289M239p428K414k400M713m549J742K122m904L539j807l127K408
2454 B4911J309j186L080k660J223N86L547l099l075N037l064K57l178J953J188l885K601Q07
2418 B6352j635M651N47o513j243J168N944n533K131L510j496O06j894M677n808j668K885N907
2382 C2588k696m013k922L641R89K27j567j983J066K051K157p84k771O9L049k20j260n972J869
2344 B3518M622Q98j453p72k56Q32l941J630K773j887K91K83Q56j951j138K992m378L359k712
2306 B3566N415K823p654M509l042k55L36J794N70k865J58L767O06n276J587K904K346l998N49
2268 B7840k977M157j153j832Q01M824j518J6n254o95p62M802l909K74M819o535N136l760K893
2230 B7167M873m354j312R6j1o73k459J756M853k52j325j447J459p99P66K032o25l430j149
2192 B5166k585K896J399q8K11R98J277n466J173J1L609K457l467N25k043j001O64M889l526
2154 B7099l53J822j151K133k323O32M89k384M24K235j073j494J205N472n823j296K582K687
2118 C0883l979j06m08j876K587K566j438o66l886K896j645l375M496K599l367K26N639k320
2082 B8826J285J17j424j543J134K154k591k31J28J542l078M739j558l477N261p516j342O327
2046 B8753k960L12K493J232K499l798k595K823j967m93L559M32o841O295j902Q02l283j67
2010 B5194J253K211j542m26K779l716k424N157l570K956J983m229O12j736K816j520k303L418
1974 B6913K676m884L248j982k517P013k005p02j928k349N946l465N484n504Q01M55k21J470
1938 B8449j066M70j556M533l067q74R20k272J181J432O9L260l920Q96k857M782l222M840q060
1900 B3938O855l506rj966L784J276n429L351k046K178ql286j304L591K076m261K501J429k722
1862 B6442j187J747K531j722K819n470P843m436k222M560l994n08M61m497P105j945n95j337
1826 B5595N538l343p50K618k924L1L089l55k27J7j294k012J872L987m398K883l647K217k075
1788 B6822K157j360k293L523L423k429J656K145K635O359L402N470O324J6100R918J6179
1756 A00031J8339K8501K8448L3773L6055M4895N2730O0413N4018O4359O7062O4326O1873
1730 G14823N7637O1993N2228M2803L2032K1555J6000J190j4339k3786l2777m7113m9717n6262
1702 G76267o4754n9985o6788o3238o7069n5246n7504m7342m7654l6741k9599l6135k2090
1676 A22122k0129j5076j4094j0379j2840m473o728k963K560n330l414Q52K148m497Q00j458
1644 B7101k34K944J836m346M968n404O006l639L726o491M128K24m149l08K031j257L919l421
1608 B7634P52N48L769j528o29j582O42m982L775j839K405l01j137J526J71k775L961p27j138
1570 B8545J200J897k53m22j480M335j104q026O085o572O957N0k028j94J082N85j139l610J881
1532 B7789L557j945k41K798l389j412q4N842m617M655k362j6K537k90L39O925L756K011O316
1494 E2169J4931O459J4135J1756J7701K6313J6050K3851L0395K4371K3963K3898K4568J7781
1466 C28341J2851P342P181r456k424r987k4635j9752k7736k4647j9625k9324k3225k3182
1438 A41722k6447j7632j3022r960j5816l307p994j800p705l437j323q19q26k32M738P399m0
1404 D3499Q322K448J5117J1998J7874J8056J9188K3027K6652K1314K3880J4048J3929P638m95
1374 B66495o402j2523k1858k2205j5560k3452k4625k1291k2034k1306q700p090j1866o143
1346 D1440j969n512j783k156K42R31K107k98m303N51J777k346l853Q748o077K453n41N44j218
1308 B8737J261m115M125j808Q72K197j600J947k613N344n828q0M72J818k382L095k340J151
1272 C0253j724M458n681J42M595k345J582J567j330l333J781l917K735k93m46R4J522Q12o636
1234 B3836Q668l272K95J433M169r1o218L582j418o10j675J231K116l37N093o580K347P21L107
1196 C6397j118J857j603M217K57L988N846N29L43M361N763O624O611L577J2772O363Q049R081
1160 A13914J3889J1568K1272J3857J7871J5177J6480K6504K1794K3034K4832K4585K0898
1134 C65675L1209K7555K3912K1455L0092K2954K6408K6402J2559J8146K2992Q868J8567P820
1106 F64614N676K031M232j350k678m598j4925q678j4597k0222j9193j7949k8641j8126k8440
1076 D97156k3384k4732k7585k5797k5470k2032l2535j5609k4851k8117j5771k1977j9718
1050 A89578j4952j5028j4969j7932j0435j0905p542q159j0211m594p788m750p403J167m892
1020 E1185m174p127K375j296j983m822l04N187p930l44K479K066l702O92M83n866K490K92M15
982 C0116j182J379M629l737K306k644K14m28K403l365O67l250N060l476L382j58q67m55j466
944 B9128M82j5K601o36j318K422L49q762M654M781j527k192K342N58j45l836P40K532r13L92
904 C1637n429O666k088j485O50o95M506m539K609k319n40J417K360l843k210N064l342K750
868 C1169K732j652j38o393M724J700j124K44k049M479m698J227j695L388K43j725n73Q49N884
830 C6592j0581M361K312j191j161J039j337j077J058L930j004k838J072K51J378l807M707
796 C3704l939K686m35l321L697J357K210l468j978L62L105J377l090p62J244j88j385j305J18
758 B9989p66M390r01K071l746N384L988N980N255J4264Q760J3153J9778K1035K1444J1588
726 A61666J8844J1640L179n724o246j7020j6635k0636j8913j3475j8838j2446j2528r136l961
696 C9771k128m481K138p053P971m755M605k50l58l961J339l639K791n03m082K291M742n494
660 B8944M708k045l97k813M118N24M068n980p96K636j068j448L030j357R9K133m401L822l585
622 C0192K444j063j93p775P609j826K019k06J610n012L431K288l850K471L471l466Q20k015
586 C0949k310J498K890L351p324P10J495k348K739J034n33j253l105N718l269J678j240r36
550 B9744P24R4k575Q04L554J126j937k176J963K567l421L743l171Q09j979K864K021l912J746
512 C2588k451K489K60R54k633l129M201n35j567L628k482J151l47J013L86k814K152J244k57
474 C3851o1n965K934J106k64r02J511N389o423L18K545n253J414n08K597k144J255k011L182
436 C2571K829l535p41R60k92K368J468n699K960L917l121m116N519m331L6P59j189K166
400 C2529
##END=
